This is Ipopt version 3.14.16, running with linear solver MUMPS 5.7.3.

Number of nonzeros in equality constraint Jacobian...:        0
Number of nonzeros in inequality constraint Jacobian.:     1071
Number of nonzeros in Lagrangian Hessian.............:        0

Total number of variables............................:       21
                     variables with only lower bounds:        0
                variables with lower and upper bounds:       21
                     variables with only upper bounds:        0
Total number of equality constraints.................:        0
Total number of inequality constraints...............:       51
        inequality constraints with only lower bounds:        0
   inequality constraints with lower and upper bounds:        0
        inequality constraints with only upper bounds:       51

iter    objective    inf_pr   inf_du lg(mu)  ||d||  lg(rg) alpha_du alpha_pr  ls
   0  6.8889294e-01 7.56e-01 9.74e+00   0.0 0.00e+00    -  0.00e+00 0.00e+00   0
   1  4.8272938e-01 7.52e-01 9.88e+00  -5.9 7.37e-01    -  6.17e-02 1.73e-02f  1
   2  1.0391382e-02 6.96e-01 9.40e+00  -1.8 1.86e+00    -  1.27e-01 7.52e-02h  1
   3  2.1094381e-02 6.47e-01 3.00e+01  -1.5 4.50e+00    -  5.71e-02 7.02e-02H  1
   4  3.2323070e-02 5.96e-01 5.37e+01  -1.6 3.13e+00    -  1.75e-01 7.93e-02h  1
   5  3.1835923e-02 4.19e-01 3.82e+01  -6.1 5.19e-01    -  8.40e-01 2.96e-01h  1
   6  3.4318279e-02 0.00e+00 4.56e+00  -3.0 3.56e-01    -  6.70e-01 1.00e+00h  1
   7  3.4232037e-02 0.00e+00 1.60e+00  -3.5 1.42e-01    -  7.27e-01 1.00e+00h  1
   8  3.4128166e-02 0.00e+00 1.11e-01  -7.9 3.20e-03    -  9.77e-01 1.00e+00h  1
   9  2.2347718e-02 2.93e-02 5.98e-02  -3.9 6.23e+00    -  9.58e-02 5.84e-02f  1
iter    objective    inf_pr   inf_du lg(mu)  ||d||  lg(rg) alpha_du alpha_pr  ls
  10  2.3922748e-02 4.73e-02 4.11e-01  -4.0 9.22e-01    -  1.96e-01 1.00e+00h  1
  11  2.4553097e-02 0.00e+00 1.01e-01  -3.8 4.35e-01    -  5.04e-01 1.00e+00h  1
  12  2.3656655e-02 0.00e+00 3.29e-02  -4.2 1.92e-01    -  8.31e-01 6.91e-01h  1
  13  2.2712417e-02 1.06e-02 1.31e-03  -5.1 2.91e-01    -  8.78e-01 1.00e+00h  1
  14  2.2699685e-02 5.71e-03 1.77e-03  -6.4 2.12e-01    -  3.88e-01 1.00e+00h  1
  15  2.2856654e-02 0.00e+00 1.71e-04  -5.7 5.42e-02    -  1.00e+00 1.00e+00h  1
  16  2.2835932e-02 9.31e-05 9.49e-05  -6.5 4.56e-02    -  9.98e-01 1.00e+00h  1
  17  2.2836441e-02 5.88e-06 6.82e-05  -7.6 1.59e-02    -  1.00e+00 1.00e+00h  1
  18  2.2836004e-02 0.00e+00 4.35e-05  -8.0 2.08e-02    -  1.00e+00 1.00e+00h  1
  19  2.2833789e-02 3.81e-05 3.57e-05  -8.4 1.27e-02    -  1.00e+00 1.00e+00h  1
iter    objective    inf_pr   inf_du lg(mu)  ||d||  lg(rg) alpha_du alpha_pr  ls
  20  2.2834193e-02 1.29e-05 5.18e-06  -8.9 8.10e-03    -  1.00e+00 1.00e+00h  1
  21  2.2834523e-02 2.74e-08 1.07e-06 -10.5 1.21e-03    -  1.00e+00 1.00e+00h  1
  22  2.2834508e-02 3.58e-07 8.16e-07  -9.7 1.47e-03    -  1.00e+00 1.00e+00h  1

Number of Iterations....: 22

                                   (scaled)                 (unscaled)
Objective...............:   2.1521036212636555e-02    2.2834507939986561e-02
Dual infeasibility......:   8.1607142289322631e-07    8.6587788810604724e-07
Constraint violation....:   3.5755851873238042e-07    3.5755851873238042e-07
Variable bound violation:   0.0000000000000000e+00    0.0000000000000000e+00
Complementarity.........:   2.0751687523412705e-10    2.2018204367095169e-10
Overall NLP error.......:   8.1607142289322631e-07    8.6587788810604724e-07


Number of objective function evaluations             = 24
Number of objective gradient evaluations             = 23
Number of equality constraint evaluations            = 0
Number of inequality constraint evaluations          = 24
Number of equality constraint Jacobian evaluations   = 0
Number of inequality constraint Jacobian evaluations = 23
Number of Lagrangian Hessian evaluations             = 0
Total seconds in IPOPT                               = 19.785

EXIT: Optimal Solution Found.
